(set-info :smt-lib-version 2.6)
(set-logic UFNIA)
(set-info :source |
Generated by: Geoff Sutcliffe
Generated on: 2026-03-11
Generator: TPTPWorld
Application: Benchmarking automated theorem provers
Time limit: 120.0

These benchmarks are translations from the TPTP Library (Thousands of
Problems for Theorem Provers), see http://www.cs.miami.edu/~tptp/

The TPTP is maintained by Geoff Sutcliffe, and he contributed this
selection of benchmarks to SMT-LIB.  They were exported from the
v9.2.1 realease of TPTP.
|)
(set-info :category "industrial")
(set-info :status unknown)
; SZS status Success
(declare-sort $$unsorted 0)
(declare-sort tptp.uni 0)
(declare-sort tptp.ty 0)
(declare-fun tptp.sort (tptp.ty tptp.uni) Bool)
(declare-fun tptp.witness (tptp.ty) tptp.uni)
(assert (forall ((A tptp.ty)) (tptp.sort A (tptp.witness A))))
(declare-fun tptp.int () tptp.ty)
(declare-fun tptp.real () tptp.ty)
(declare-sort tptp.bool 0)
(declare-fun tptp.bool1 () tptp.ty)
(declare-fun tptp.true () tptp.bool)
(declare-fun tptp.false () tptp.bool)
(declare-fun tptp.match_bool (tptp.ty tptp.bool tptp.uni tptp.uni) tptp.uni)
(assert (forall ((A tptp.ty) (X tptp.bool) (X1 tptp.uni) (X2 tptp.uni)) (tptp.sort A (tptp.match_bool A X X1 X2))))
(assert (forall ((A tptp.ty) (Z tptp.uni) (Z1 tptp.uni)) (=> (tptp.sort A Z) (= (tptp.match_bool A tptp.true Z Z1) Z))))
(assert (forall ((A tptp.ty) (Z tptp.uni) (Z1 tptp.uni)) (=> (tptp.sort A Z1) (= (tptp.match_bool A tptp.false Z Z1) Z1))))
(assert (not (= tptp.true tptp.false)))
(assert (forall ((U tptp.bool)) (or (= U tptp.true) (= U tptp.false))))
(declare-sort tptp.tuple0 0)
(declare-fun tptp.tuple01 () tptp.ty)
(declare-fun tptp.tuple02 () tptp.tuple0)
(assert (forall ((U tptp.tuple0)) (= U tptp.tuple02)))
(declare-fun tptp.qtmark () tptp.ty)
(assert (forall ((X Int) (Y Int) (Z Int)) (=> (<= X Y) (=> (<= 0 Z) (<= (* X Z) (* Y Z))))))
(declare-fun tptp.map (tptp.ty tptp.ty) tptp.ty)
(declare-fun tptp.get (tptp.ty tptp.ty tptp.uni tptp.uni) tptp.uni)
(assert (forall ((A tptp.ty) (B tptp.ty) (X tptp.uni) (X1 tptp.uni)) (tptp.sort B (tptp.get B A X X1))))
(declare-fun tptp.set (tptp.ty tptp.ty tptp.uni tptp.uni tptp.uni) tptp.uni)
(assert (forall ((A tptp.ty) (B tptp.ty) (X tptp.uni) (X1 tptp.uni) (X2 tptp.uni)) (tptp.sort (tptp.map A B) (tptp.set B A X X1 X2))))
(assert (forall ((A tptp.ty) (B tptp.ty) (M tptp.uni) (A1 tptp.uni) (A2 tptp.uni) (B1 tptp.uni)) (=> (tptp.sort B B1) (=> (= A1 A2) (= (tptp.get B A (tptp.set B A M A1 B1) A2) B1)))))
(assert (forall ((A tptp.ty) (B tptp.ty) (M tptp.uni) (A1 tptp.uni) (A2 tptp.uni)) (=> (tptp.sort A A1) (=> (tptp.sort A A2) (forall ((B1 tptp.uni)) (=> (not (= A1 A2)) (= (tptp.get B A (tptp.set B A M A1 B1) A2) (tptp.get B A M A2))))))))
(declare-fun tptp.const (tptp.ty tptp.ty tptp.uni) tptp.uni)
(assert (forall ((A tptp.ty) (B tptp.ty) (X tptp.uni)) (tptp.sort (tptp.map A B) (tptp.const B A X))))
(assert (forall ((A tptp.ty) (B tptp.ty) (B1 tptp.uni) (A1 tptp.uni)) (=> (tptp.sort B B1) (= (tptp.get B A (tptp.const B A B1) A1) B1))))
(declare-fun tptp.ref (tptp.ty) tptp.ty)
(declare-fun tptp.mk_ref (tptp.ty tptp.uni) tptp.uni)
(assert (forall ((A tptp.ty) (X tptp.uni)) (tptp.sort (tptp.ref A) (tptp.mk_ref A X))))
(declare-fun tptp.contents (tptp.ty tptp.uni) tptp.uni)
(assert (forall ((A tptp.ty) (X tptp.uni)) (tptp.sort A (tptp.contents A X))))
(assert (forall ((A tptp.ty) (U tptp.uni)) (=> (tptp.sort A U) (= (tptp.contents A (tptp.mk_ref A U)) U))))
(assert (forall ((A tptp.ty) (U tptp.uni)) (=> (tptp.sort (tptp.ref A) U) (= U (tptp.mk_ref A (tptp.contents A U))))))
(declare-sort tptp.color 0)
(declare-fun tptp.color1 () tptp.ty)
(declare-fun tptp.blue () tptp.color)
(declare-fun tptp.white () tptp.color)
(declare-fun tptp.red () tptp.color)
(declare-fun tptp.match_color (tptp.ty tptp.color tptp.uni tptp.uni tptp.uni) tptp.uni)
(assert (forall ((A tptp.ty) (X tptp.color) (X1 tptp.uni) (X2 tptp.uni) (X3 tptp.uni)) (tptp.sort A (tptp.match_color A X X1 X2 X3))))
(assert (forall ((A tptp.ty) (Z tptp.uni) (Z1 tptp.uni) (Z2 tptp.uni)) (=> (tptp.sort A Z) (= (tptp.match_color A tptp.blue Z Z1 Z2) Z))))
(assert (forall ((A tptp.ty) (Z tptp.uni) (Z1 tptp.uni) (Z2 tptp.uni)) (=> (tptp.sort A Z1) (= (tptp.match_color A tptp.white Z Z1 Z2) Z1))))
(assert (forall ((A tptp.ty) (Z tptp.uni) (Z1 tptp.uni) (Z2 tptp.uni)) (=> (tptp.sort A Z2) (= (tptp.match_color A tptp.red Z Z1 Z2) Z2))))
(assert (not (= tptp.blue tptp.white)))
(assert (not (= tptp.blue tptp.red)))
(assert (not (= tptp.white tptp.red)))
(assert (forall ((U tptp.color)) (or (= U tptp.blue) (= U tptp.white) (= U tptp.red))))
(declare-sort tptp.map_int_color 0)
(declare-fun tptp.monochrome (tptp.map_int_color Int Int tptp.color) Bool)
(declare-fun tptp.t2tb (tptp.map_int_color) tptp.uni)
(assert (forall ((X tptp.map_int_color)) (tptp.sort (tptp.map tptp.int tptp.color1) (tptp.t2tb X))))
(declare-fun tptp.tb2t (tptp.uni) tptp.map_int_color)
(assert (forall ((I tptp.map_int_color)) (= (tptp.tb2t (tptp.t2tb I)) I)))
(assert (forall ((J tptp.uni)) (=> (tptp.sort (tptp.map tptp.int tptp.color1) J) (= (tptp.t2tb (tptp.tb2t J)) J))))
(declare-fun tptp.t2tb1 (tptp.color) tptp.uni)
(assert (forall ((X tptp.color)) (tptp.sort tptp.color1 (tptp.t2tb1 X))))
(declare-fun tptp.tb2t1 (tptp.uni) tptp.color)
(assert (forall ((I tptp.color)) (= (tptp.tb2t1 (tptp.t2tb1 I)) I)))
(assert (forall ((J tptp.uni)) (=> (tptp.sort tptp.color1 J) (= (tptp.t2tb1 (tptp.tb2t1 J)) J))))
(declare-fun tptp.t2tb2 (Int) tptp.uni)
(assert (forall ((X Int)) (tptp.sort tptp.int (tptp.t2tb2 X))))
(declare-fun tptp.tb2t2 (tptp.uni) Int)
(assert (forall ((I Int)) (= (tptp.tb2t2 (tptp.t2tb2 I)) I)))
(assert (forall ((J tptp.uni)) (= (tptp.t2tb2 (tptp.tb2t2 J)) J)))
(assert (forall ((A tptp.map_int_color) (I Int) (J Int) (C tptp.color)) (= (tptp.monochrome A I J C) (forall ((K Int)) (=> (and (<= I K) (< K J)) (= (tptp.tb2t1 (tptp.get tptp.color1 tptp.int (tptp.t2tb A) (tptp.t2tb2 K))) C))))))
(declare-fun tptp.nb_occ (tptp.map_int_color Int Int tptp.color) Int)
(assert (forall ((A tptp.map_int_color) (I Int) (J Int) (C tptp.color)) (=> (<= J I) (= (tptp.nb_occ A I J C) 0))))
(assert (forall ((A tptp.map_int_color) (I Int) (J Int) (C tptp.color)) (let ((_let_1 (- J 1))) (=> (and (< I J) (= (tptp.tb2t1 (tptp.get tptp.color1 tptp.int (tptp.t2tb A) (tptp.t2tb2 _let_1))) C)) (= (tptp.nb_occ A I J C) (+ (tptp.nb_occ A I _let_1 C) 1))))))
(assert (forall ((A tptp.map_int_color) (I Int) (J Int) (C tptp.color)) (let ((_let_1 (- J 1))) (=> (and (< I J) (not (= (tptp.tb2t1 (tptp.get tptp.color1 tptp.int (tptp.t2tb A) (tptp.t2tb2 _let_1))) C))) (= (tptp.nb_occ A I J C) (tptp.nb_occ A I _let_1 C))))))
(assert (forall ((A tptp.map_int_color) (I Int) (J Int) (K Int) (C tptp.color)) (=> (and (<= I J) (<= J K)) (= (tptp.nb_occ A I K C) (+ (tptp.nb_occ A I J C) (tptp.nb_occ A J K C))))))
(assert (forall ((A1 tptp.map_int_color) (A2 tptp.map_int_color) (I Int) (J Int) (C tptp.color)) (=> (forall ((K Int)) (let ((_let_1 (tptp.t2tb2 K))) (=> (and (<= I K) (< K J)) (= (tptp.tb2t1 (tptp.get tptp.color1 tptp.int (tptp.t2tb A1) _let_1)) (tptp.tb2t1 (tptp.get tptp.color1 tptp.int (tptp.t2tb A2) _let_1)))))) (= (tptp.nb_occ A1 I J C) (tptp.nb_occ A2 I J C)))))
(assert (forall ((A tptp.map_int_color) (I Int) (J Int) (K Int) (C tptp.color)) (=> (and (<= I J) (<= J K)) (= (tptp.nb_occ (tptp.tb2t (tptp.set tptp.color1 tptp.int (tptp.t2tb A) (tptp.t2tb2 K) (tptp.t2tb1 C))) I J C) (tptp.nb_occ A I J C)))))
(assert (forall ((A tptp.map_int_color) (I Int) (J Int) (K Int) (C tptp.color)) (=> (and (< K I) (<= I J)) (= (tptp.nb_occ (tptp.tb2t (tptp.set tptp.color1 tptp.int (tptp.t2tb A) (tptp.t2tb2 K) (tptp.t2tb1 C))) I J C) (tptp.nb_occ A I J C)))))
(assert (forall ((A tptp.map_int_color) (I Int) (J Int) (K Int) (C tptp.color)) (let ((_let_1 (tptp.t2tb2 K))) (let ((_let_2 (tptp.t2tb A))) (=> (and (<= I K) (< K J)) (=> (= (tptp.tb2t1 (tptp.get tptp.color1 tptp.int _let_2 _let_1)) C) (= (tptp.nb_occ (tptp.tb2t (tptp.set tptp.color1 tptp.int _let_2 _let_1 (tptp.t2tb1 C))) I J C) (tptp.nb_occ A I J C))))))))
(assert (forall ((A tptp.map_int_color) (I Int) (J Int) (K Int) (C tptp.color)) (let ((_let_1 (tptp.t2tb2 K))) (let ((_let_2 (tptp.t2tb A))) (=> (and (<= I K) (< K J)) (=> (not (= (tptp.tb2t1 (tptp.get tptp.color1 tptp.int _let_2 _let_1)) C)) (= (tptp.nb_occ (tptp.tb2t (tptp.set tptp.color1 tptp.int _let_2 _let_1 (tptp.t2tb1 C))) I J C) (+ (tptp.nb_occ A I J C) 1))))))))
(assert (forall ((A tptp.map_int_color) (I Int) (J Int) (K Int) (C tptp.color) (Cqt tptp.color)) (let ((_let_1 (tptp.t2tb2 K))) (let ((_let_2 (tptp.t2tb A))) (=> (and (<= I K) (< K J)) (=> (not (= C Cqt)) (=> (= (tptp.tb2t1 (tptp.get tptp.color1 tptp.int _let_2 _let_1)) C) (= (tptp.nb_occ (tptp.tb2t (tptp.set tptp.color1 tptp.int _let_2 _let_1 (tptp.t2tb1 Cqt))) I J C) (- (tptp.nb_occ A I J C) 1)))))))))
(assert (forall ((A tptp.map_int_color) (I Int) (J Int) (K Int) (C tptp.color) (Cqt tptp.color)) (let ((_let_1 (tptp.t2tb2 K))) (let ((_let_2 (tptp.t2tb A))) (=> (and (<= I K) (< K J)) (=> (not (= C Cqt)) (=> (not (= (tptp.tb2t1 (tptp.get tptp.color1 tptp.int _let_2 _let_1)) C)) (= (tptp.nb_occ (tptp.tb2t (tptp.set tptp.color1 tptp.int _let_2 _let_1 (tptp.t2tb1 Cqt))) I J C) (tptp.nb_occ A I J C)))))))))
(assert (not (forall ((A tptp.map_int_color) (I Int) (J Int) (A1 tptp.map_int_color)) (let ((_let_1 (tptp.t2tb A))) (=> (= A1 (tptp.tb2t (tptp.set tptp.color1 tptp.int _let_1 (tptp.t2tb2 I) (tptp.get tptp.color1 tptp.int _let_1 (tptp.t2tb2 J))))) (forall ((A2 tptp.map_int_color)) (=> (= A2 (tptp.tb2t (tptp.set tptp.color1 tptp.int (tptp.t2tb A1) (tptp.t2tb2 J) (tptp.get tptp.color1 tptp.int (tptp.t2tb A) (tptp.t2tb2 I))))) (forall ((K1 Int) (K2 Int) (C tptp.color)) (=> (and (<= K1 I) (< I K2) (<= K1 J) (< J K2)) (= (tptp.nb_occ A2 K1 K2 C) (tptp.nb_occ A K1 K2 C)))))))))))
(check-sat)
(exit)
